units real
atom_style full

dimension 3
boundary p p p

bond_style hybrid harmonic
angle_style hybrid harmonic charmm
dihedral_style hybrid multi/harmonic charmm
improper_style hybrid harmonic
special_bonds lj 0.0 0.0 1.0 coul 0.0 0.0 1.0

read_data complex_converted.lmp

pair_style lj/cut/coul/long 9.0 9.0
pair_modify tail yes
kspace_style pppm 1e-8

pair_coeff 1 1   0.2000000   3.2963253
pair_coeff 2 2   0.0459990   0.4000135
pair_coeff 3 3   0.0320005   3.5635949
pair_coeff 4 4   0.0220005   2.3519726
pair_coeff 5 5   0.0559990   3.5814128
pair_coeff 6 6   0.0340010   2.3876086
pair_coeff 7 7   0.4500000   3.5635949
pair_coeff 8 8   0.0779995   3.6348668
pair_coeff 9 9   0.0240010   2.3876086
pair_coeff 10 10   0.1100000   3.5635949
pair_coeff 11 11   0.1200000   3.0290556
pair_coeff 12 12   0.2000000   3.2963253
pair_coeff 13 13   0.0459990   0.4000135
pair_coeff 14 14   0.0559990   3.5814128
pair_coeff 15 15   0.0700000   3.5635949
pair_coeff 16 16   0.1200000   3.0290556
pair_coeff 17 17   0.2000000   3.2963253
pair_coeff 18 18   0.0700000   3.5500532
pair_coeff 19 19   0.0300000   2.4200373
pair_coeff 20 20   0.0450000   2.3876086
pair_coeff 21 21   0.0279995   2.3876086
pair_coeff 22 22   0.1521009   3.1537815
pair_coeff 23 23   0.2000000   3.2963253
pair_coeff 24 24   0.2000000   3.2963253
pair_coeff 25 25   0.0550000   3.8754094
pair_coeff 26 26   0.0200000   4.0535892
pair_coeff 27 27   0.0550000   3.8754094
pair_coeff 28 28   0.2000000   3.2963253
pair_coeff 29 29   0.0500000   3.2072354
pair_coeff 30 30   0.0500000   3.2072354
pair_coeff 31 31   0.0459990   1.6036177
pair_coeff 32 32   0.2000000   3.2963253
pair_coeff 33 33   0.0078011   2.6156786
pair_coeff 34 34   0.1000000   0.8018088
pair_coeff 35 35   0.0729995   3.5457769
pair_coeff 36 36   0.2000000   3.2963253
pair_coeff 37 37   0.0990010   3.3141432
pair_coeff 38 38   0.0729995   3.5457769
pair_coeff 5 11   0.0346410   2.9399658
pair_coeff 12 15   0.1183216   3.1626904
pair_coeff 4 12   0.0663325   2.5568793
pair_coeff 5 17   0.0447214   3.3408702
pair_coeff 11 12   0.1549193   2.6281512
pair_coeff 5 6   0.0184391   2.8865118
pair_coeff 5 11   0.0346410   2.9399658
pair_coeff 12 12   0.2000000   2.7617860
pair_coeff 5 6   0.0184391   2.8865118
pair_coeff 5 12   0.0447214   3.0736006
pair_coeff 13 14   0.0214476   1.8927143
pair_coeff 5 5   0.0100000   3.3854151
pair_coeff 5 13   0.0214476   1.8927143
pair_coeff 3 16   0.0346410   3.2072354
pair_coeff 5 11   0.0346410   2.9399658
pair_coeff 5 13   0.0214476   1.8927143
pair_coeff 3 16   0.0346410   3.2072354
pair_coeff 5 12   0.0447214   3.0736006
pair_coeff 5 10   0.0331662   3.4745050
pair_coeff 3 13   0.0214476   1.8927143
pair_coeff 5 6   0.0184391   2.8865118
pair_coeff 6 11   0.0638749   2.4410625
pair_coeff 3 3   0.0100000   3.3854151
pair_coeff 5 6   0.0184391   2.8865118
pair_coeff 6 11   0.0638749   2.4410625
pair_coeff 4 11   0.0513809   2.4232445
pair_coeff 5 6   0.0184391   2.8865118
pair_coeff 11 13   0.0742967   1.4472650
pair_coeff 4 12   0.0663325   2.5568793
pair_coeff 5 6   0.0184391   2.8865118
pair_coeff 11 13   0.0742967   1.4472650
pair_coeff 11 14   0.0346410   2.9399658
pair_coeff 1 5   0.0447214   3.3408702
pair_coeff 5 10   0.0331662   3.4745050
pair_coeff 12 14   0.0447214   3.0736006
pair_coeff 5 10   0.0331662   3.4745050
pair_coeff 11 13   0.0742967   1.4472650
pair_coeff 5 10   0.0331662   3.4745050
pair_coeff 5 6   0.0184391   2.8865118
pair_coeff 3 11   0.0346410   2.9399658
pair_coeff 11 13   0.0742967   1.4472650
pair_coeff 5 6   0.0184391   2.8865118
pair_coeff 6 12   0.0824621   2.5746973
pair_coeff 3 11   0.0346410   2.9399658
pair_coeff 2 5   0.0214476   1.8927143
pair_coeff 6 12   0.0824621   2.5746973
pair_coeff 6 12   0.0824621   2.5746973
pair_coeff 2 5   0.0214476   1.8927143
pair_coeff 12 15   0.1183216   3.1626904
pair_coeff 6 12   0.0824621   2.5746973
pair_coeff 2 5   0.0214476   1.8927143
pair_coeff 11 12   0.1549193   2.6281512
pair_coeff 12 22   0.1744133   2.9577837
pair_coeff 5 10   0.0331662   3.4745050
pair_coeff 12 12   0.2000000   2.7617860
pair_coeff 11 12   0.1549193   2.6281512
pair_coeff 11 13   0.0742967   1.4472650
pair_coeff 5 13   0.0214476   1.8927143
pair_coeff 12 12   0.2000000   2.7617860
pair_coeff 3 11   0.0346410   2.9399658
pair_coeff 3 11   0.0346410   2.9399658
pair_coeff 5 13   0.0214476   1.8927143
pair_coeff 6 12   0.0824621   2.5746973
pair_coeff 3 17   0.0447214   3.3408702
pair_coeff 3 13   0.0214476   1.8927143
pair_coeff 6 12   0.0824621   2.5746973
pair_coeff 3 13   0.0214476   1.8927143
pair_coeff 3 13   0.0214476   1.8927143
pair_coeff 12 35   0.1208305   3.1537815
pair_coeff 3 3   0.0100000   3.3854151
pair_coeff 3 3   0.0100000   3.3854151
pair_coeff 11 12   0.1549193   2.6281512
pair_coeff 4 11   0.0513809   2.4232445
pair_coeff 4 11   0.0513809   2.4232445
pair_coeff 12 12   0.2000000   2.7617860
pair_coeff 4 12   0.0663325   2.5568793
pair_coeff 4 12   0.0663325   2.5568793
pair_coeff 5 13   0.0214476   1.8927143
pair_coeff 5 13   0.0214476   1.8927143
pair_coeff 5 11   0.0346410   2.9399658
pair_coeff 3 18   0.0264575   3.4677342
pair_coeff 5 13   0.0214476   1.8927143
pair_coeff 5 12   0.0447214   3.0736006
pair_coeff 3 37   0.0314643   3.3497792
pair_coeff 3 13   0.0214476   1.8927143
pair_coeff 19 22   0.0675500   2.7869094
pair_coeff 3 3   0.0100000   3.3854151
pair_coeff 19 19   0.0300000   2.4200373
pair_coeff 4 11   0.0513809   2.4232445
pair_coeff 5 10   0.0331662   3.4745050
pair_coeff 4 12   0.0663325   2.5568793
pair_coeff 11 13   0.0742967   1.4472650
pair_coeff 5 13   0.0214476   1.8927143
pair_coeff 3 11   0.0346410   2.9399658
pair_coeff 5 13   0.0214476   1.8927143
pair_coeff 6 12   0.0824621   2.5746973
pair_coeff 5 11   0.0346410   2.9399658
pair_coeff 6 12   0.0824621   2.5746973
pair_coeff 5 12   0.0447214   3.0736006
pair_coeff 5 12   0.0447214   3.0736006
pair_coeff 6 11   0.0638749   2.4410625
pair_coeff 11 12   0.1549193   2.6281512
pair_coeff 6 11   0.0638749   2.4410625
pair_coeff 12 12   0.2000000   2.7617860
pair_coeff 11 13   0.0742967   1.4472650
pair_coeff 5 13   0.0214476   1.8927143
pair_coeff 11 13   0.0742967   1.4472650
pair_coeff 3 6   0.0184391   2.8865118
pair_coeff 3 10   0.0331662   3.4745050
pair_coeff 3 6   0.0184391   2.8865118
pair_coeff 11 13   0.0742967   1.4472650
pair_coeff 3 5   0.0100000   3.3854151
pair_coeff 3 11   0.0346410   2.9399658
pair_coeff 3 13   0.0214476   1.8927143
pair_coeff 12 20   0.0948683   2.5746973
pair_coeff 3 3   0.0100000   3.3854151
pair_coeff 8 12   0.0447214   3.0736006
pair_coeff 4 5   0.0148324   2.8686939
pair_coeff 5 12   0.0447214   3.0736006
pair_coeff 4 11   0.0513809   2.4232445
pair_coeff 11 12   0.1549193   2.6281512
pair_coeff 4 12   0.0663325   2.5568793
pair_coeff 12 12   0.2000000   2.7617860
pair_coeff 5 6   0.0184391   2.8865118
pair_coeff 3 13   0.0214476   1.8927143
pair_coeff 5 6   0.0184391   2.8865118
pair_coeff 3 9   0.0154919   2.8865118
pair_coeff 5 23   0.0447214   3.3408702
pair_coeff 3 9   0.0154919   2.8865118
pair_coeff 5 11   0.0346410   2.9399658
pair_coeff 3 9   0.0154919   2.8865118
pair_coeff 5 12   0.0447214   3.0736006
pair_coeff 3 6   0.0184391   2.8865118
pair_coeff 5 6   0.0184391   2.8865118
pair_coeff 3 6   0.0184391   2.8865118
pair_coeff 5 6   0.0184391   2.8865118
pair_coeff 3 8   0.0100000   3.3854151
pair_coeff 2 5   0.0214476   1.8927143
pair_coeff 3 13   0.0214476   1.8927143
pair_coeff 5 10   0.0331662   3.4745050
pair_coeff 12 20   0.0948683   2.5746973
pair_coeff 12 22   0.1744133   2.9577837
pair_coeff 8 12   0.0447214   3.0736006
pair_coeff 11 12   0.1549193   2.6281512
pair_coeff 12 12   0.2000000   2.7617860
pair_coeff 3 13   0.0214476   1.8927143
pair_coeff 3 13   0.0214476   1.8927143
pair_coeff 3 9   0.0154919   2.8865118
pair_coeff 3 9   0.0154919   2.8865118
pair_coeff 3 9   0.0154919   2.8865118
pair_coeff 3 13   0.0214476   1.8927143
pair_coeff 3 5   0.0100000   3.3854151
pair_coeff 4 8   0.0148324   2.8686939
pair_coeff 4 11   0.0513809   2.4232445
pair_coeff 4 12   0.0663325   2.5568793
pair_coeff 3 11   0.0346410   2.9399658
pair_coeff 3 12   0.0447214   3.0736006
pair_coeff 8 13   0.0214476   1.8927143
pair_coeff 8 10   0.0331662   3.4745050
pair_coeff 11 13   0.0742967   1.4472650
pair_coeff 5 11   0.0346410   2.9399658
pair_coeff 11 12   0.1549193   2.6281512
pair_coeff 12 12   0.2000000   2.7617860
pair_coeff 5 13   0.0214476   1.8927143
pair_coeff 3 5   0.0100000   3.3854151
pair_coeff 11 21   0.0579655   2.4410625
pair_coeff 12 21   0.0748331   2.5746973
pair_coeff 11 21   0.0579655   2.4410625
pair_coeff 3 11   0.0346410   2.9399658
pair_coeff 3 13   0.0214476   1.8927143
pair_coeff 8 10   0.0331662   3.4745050
pair_coeff 3 12   0.0447214   3.0736006
pair_coeff 3 3   0.0100000   3.3854151
pair_coeff 11 13   0.0742967   1.4472650
pair_coeff 8 13   0.0214476   1.8927143
pair_coeff 4 11   0.0513809   2.4232445
pair_coeff 3 11   0.0346410   2.9399658
pair_coeff 8 10   0.0331662   3.4745050
pair_coeff 4 12   0.0663325   2.5568793
pair_coeff 9 12   0.0692820   2.5746973
pair_coeff 11 13   0.0742967   1.4472650
pair_coeff 5 19   0.0173205   2.9027262
pair_coeff 9 12   0.0692820   2.5746973
pair_coeff 5 11   0.0346410   2.9399658
pair_coeff 5 36   0.0447214   3.3408702
pair_coeff 9 12   0.0692820   2.5746973
pair_coeff 11 12   0.1549193   2.6281512
pair_coeff 5 37   0.0314643   3.3497792
pair_coeff 11 12   0.1549193   2.6281512
pair_coeff 12 12   0.2000000   2.7617860
pair_coeff 5 38   0.0270185   3.4655960
pair_coeff 12 12   0.2000000   2.7617860
pair_coeff 5 13   0.0214476   1.8927143
pair_coeff 5 11   0.0346410   2.9399658
pair_coeff 8 13   0.0214476   1.8927143
pair_coeff 3 5   0.0100000   3.3854151
pair_coeff 5 12   0.0447214   3.0736006
pair_coeff 3 13   0.0214476   1.8927143
pair_coeff 11 21   0.0579655   2.4410625
pair_coeff 19 35   0.0467974   2.9829071
pair_coeff 3 3   0.0100000   3.3854151
pair_coeff 12 21   0.0748331   2.5746973
pair_coeff 13 19   0.0371484   1.4100254
pair_coeff 4 11   0.0513809   2.4232445
pair_coeff 11 21   0.0579655   2.4410625
pair_coeff 19 37   0.0544977   2.8670903
pair_coeff 4 12   0.0663325   2.5568793
pair_coeff 12 21   0.0748331   2.5746973
pair_coeff 19 37   0.0544977   2.8670903
pair_coeff 8 11   0.0346410   2.9399658
pair_coeff 10 14   0.0331662   3.4745050
pair_coeff 19 36   0.0774597   2.8581813
pair_coeff 8 12   0.0447214   3.0736006
pair_coeff 11 13   0.0742967   1.4472650
pair_coeff 19 37   0.0544977   2.8670903
pair_coeff 8 10   0.0331662   3.4745050
pair_coeff 3 11   0.0346410   2.9399658
pair_coeff 19 37   0.0544977   2.8670903
pair_coeff 11 13   0.0742967   1.4472650
pair_coeff 6 12   0.0824621   2.5746973
pair_coeff 19 37   0.0544977   2.8670903
pair_coeff 3 11   0.0346410   2.9399658
pair_coeff 6 12   0.0824621   2.5746973
pair_coeff 19 37   0.0544977   2.8670903
pair_coeff 9 12   0.0692820   2.5746973
pair_coeff 5 12   0.0447214   3.0736006
pair_coeff 19 38   0.0467974   2.9829071
pair_coeff 9 12   0.0692820   2.5746973
pair_coeff 11 12   0.1549193   2.6281512
pair_coeff 19 19   0.0300000   2.4200373
pair_coeff 9 12   0.0692820   2.5746973
pair_coeff 12 12   0.2000000   2.7617860
pair_coeff 18 19   0.0458258   2.9850452
pair_coeff 11 12   0.1549193   2.6281512
pair_coeff 13 14   0.0214476   1.8927143
pair_coeff 18 19   0.0458258   2.9850452
pair_coeff 12 12   0.2000000   2.7617860
pair_coeff 3 6   0.0184391   2.8865118
pair_coeff 19 38   0.0467974   2.9829071
pair_coeff 8 13   0.0214476   1.8927143
pair_coeff 3 6   0.0184391   2.8865118
pair_coeff 19 19   0.0300000   2.4200373
pair_coeff 3 13   0.0214476   1.8927143
pair_coeff 3 15   0.0264575   3.4745050
pair_coeff 19 19   0.0300000   2.4200373
pair_coeff 3 3   0.0100000   3.3854151
pair_coeff 3 13   0.0214476   1.8927143
pair_coeff 8 10   0.0331662   3.4745050
pair_coeff 4 11   0.0513809   2.4232445
pair_coeff 3 3   0.0100000   3.3854151
pair_coeff 11 13   0.0742967   1.4472650
pair_coeff 4 12   0.0663325   2.5568793
pair_coeff 3 3   0.0100000   3.3854151
pair_coeff 5 11   0.0346410   2.9399658
pair_coeff 5 10   0.0331662   3.4745050
pair_coeff 4 8   0.0148324   2.8686939
pair_coeff 5 12   0.0447214   3.0736006
pair_coeff 5 23   0.0447214   3.3408702
pair_coeff 4 5   0.0148324   2.8686939
pair_coeff 6 11   0.0638749   2.4410625
pair_coeff 5 23   0.0447214   3.3408702
pair_coeff 4 11   0.0513809   2.4232445
pair_coeff 6 11   0.0638749   2.4410625
pair_coeff 8 10   0.0331662   3.4745050
pair_coeff 4 12   0.0663325   2.5568793
pair_coeff 11 13   0.0742967   1.4472650
pair_coeff 11 13   0.0742967   1.4472650
pair_coeff 3 9   0.0154919   2.8865118
pair_coeff 11 13   0.0742967   1.4472650
pair_coeff 3 11   0.0346410   2.9399658
pair_coeff 3 9   0.0154919   2.8865118
pair_coeff 5 10   0.0331662   3.4745050
pair_coeff 9 12   0.0692820   2.5746973
pair_coeff 3 9   0.0154919   2.8865118
pair_coeff 11 13   0.0742967   1.4472650
pair_coeff 9 12   0.0692820   2.5746973
pair_coeff 3 11   0.0346410   2.9399658
pair_coeff 3 11   0.0346410   2.9399658
pair_coeff 9 12   0.0692820   2.5746973
pair_coeff 3 12   0.0447214   3.0736006
pair_coeff 6 12   0.0824621   2.5746973
pair_coeff 11 12   0.1549193   2.6281512
pair_coeff 8 20   0.0212132   2.8865118
pair_coeff 6 12   0.0824621   2.5746973
pair_coeff 12 24   0.0044721   3.0290556
pair_coeff 6 8   0.0184391   2.8865118
pair_coeff 3 12   0.0447214   3.0736006
pair_coeff 8 13   0.0214476   1.8927143
pair_coeff 6 8   0.0184391   2.8865118
pair_coeff 11 12   0.1549193   2.6281512
pair_coeff 3 25   0.0100000   3.3854151
pair_coeff 8 8   0.0100000   3.3854151
pair_coeff 12 12   0.2000000   2.7617860
pair_coeff 3 26   0.0100000   3.3854151
pair_coeff 8 10   0.0331662   3.4745050
pair_coeff 5 13   0.0214476   1.8927143
pair_coeff 4 11   0.0513809   2.4232445
pair_coeff 5 9   0.0154919   2.8865118
pair_coeff 3 20   0.0212132   2.8865118
pair_coeff 4 24   0.0014832   2.8241489
pair_coeff 5 9   0.0154919   2.8865118
pair_coeff 3 8   0.0100000   3.3854151
pair_coeff 8 11   0.0346410   2.9399658
pair_coeff 5 9   0.0154919   2.8865118
pair_coeff 3 8   0.0100000   3.3854151
pair_coeff 8 24   0.0010000   3.3408702
pair_coeff 5 10   0.0331662   3.4745050
pair_coeff 3 13   0.0214476   1.8927143
pair_coeff 10 27   0.0331662   3.4745050
pair_coeff 3 10   0.0331662   3.4745050
pair_coeff 3 3   0.0100000   3.3854151
pair_coeff 10 27   0.0331662   3.4745050
pair_coeff 11 13   0.0742967   1.4472650
pair_coeff 3 4   0.0148324   2.8686939
pair_coeff 11 25   0.0346410   2.9399658
pair_coeff 3 11   0.0346410   2.9399658
pair_coeff 4 11   0.0513809   2.4232445
pair_coeff 11 26   0.0346410   2.9399658
pair_coeff 12 20   0.0948683   2.5746973
pair_coeff 4 12   0.0663325   2.5568793
pair_coeff 6 24   0.0018439   2.8419669
pair_coeff 8 12   0.0447214   3.0736006
pair_coeff 5 9   0.0154919   2.8865118
pair_coeff 6 24   0.0018439   2.8419669
pair_coeff 8 12   0.0447214   3.0736006
pair_coeff 5 9   0.0154919   2.8865118
pair_coeff 6 24   0.0018439   2.8419669
pair_coeff 11 12   0.1549193   2.6281512
pair_coeff 5 9   0.0154919   2.8865118
pair_coeff 6 24   0.0018439   2.8419669
pair_coeff 12 12   0.2000000   2.7617860
pair_coeff 5 9   0.0154919   2.8865118
pair_coeff 11 24   0.0034641   2.8954208
pair_coeff 3 13   0.0214476   1.8927143
pair_coeff 5 9   0.0154919   2.8865118
pair_coeff 12 24   0.0044721   3.0290556
pair_coeff 12 21   0.0748331   2.5746973
pair_coeff 10 14   0.0331662   3.4745050
pair_coeff 3 10   0.0331662   3.4745050
pair_coeff 11 13   0.0742967   1.4472650
pair_coeff 11 13   0.0742967   1.4472650
pair_coeff 3 11   0.0346410   2.9399658
pair_coeff 3 11   0.0346410   2.9399658
pair_coeff 6 12   0.0824621   2.5746973
pair_coeff 12 20   0.0948683   2.5746973
pair_coeff 6 12   0.0824621   2.5746973
pair_coeff 8 12   0.0447214   3.0736006
pair_coeff 5 12   0.0447214   3.0736006
pair_coeff 5 12   0.0447214   3.0736006
pair_coeff 11 12   0.1549193   2.6281512
pair_coeff 11 12   0.1549193   2.6281512
pair_coeff 12 12   0.2000000   2.7617860
pair_coeff 12 24   0.0044721   3.0290556
pair_coeff 13 14   0.0214476   1.8927143
pair_coeff 3 13   0.0214476   1.8927143
pair_coeff 3 6   0.0184391   2.8865118
pair_coeff 3 9   0.0154919   2.8865118
pair_coeff 3 6   0.0184391   2.8865118
pair_coeff 3 9   0.0154919   2.8865118
pair_coeff 3 15   0.0264575   3.4745050
pair_coeff 3 9   0.0154919   2.8865118
pair_coeff 3 13   0.0214476   1.8927143
pair_coeff 3 6   0.0184391   2.8865118
pair_coeff 3 3   0.0100000   3.3854151
pair_coeff 3 6   0.0184391   2.8865118
pair_coeff 4 5   0.0148324   2.8686939
pair_coeff 3 8   0.0100000   3.3854151
pair_coeff 4 11   0.0513809   2.4232445
pair_coeff 3 25   0.0100000   3.3854151
pair_coeff 4 12   0.0663325   2.5568793
pair_coeff 3 26   0.0100000   3.3854151
pair_coeff 14 16   0.0346410   3.2072354
pair_coeff 4 8   0.0148324   2.8686939
pair_coeff 14 16   0.0346410   3.2072354
pair_coeff 4 5   0.0148324   2.8686939
pair_coeff 11 14   0.0346410   2.9399658
pair_coeff 4 11   0.0513809   2.4232445
pair_coeff 12 14   0.0447214   3.0736006
pair_coeff 4 24   0.0014832   2.8241489
pair_coeff 5 10   0.0331662   3.4745050
pair_coeff 3 9   0.0154919   2.8865118
pair_coeff 3 10   0.0331662   3.4745050
pair_coeff 3 9   0.0154919   2.8865118
pair_coeff 11 13   0.0742967   1.4472650
pair_coeff 3 9   0.0154919   2.8865118
pair_coeff 3 11   0.0346410   2.9399658
pair_coeff 3 11   0.0346410   2.9399658
pair_coeff 12 20   0.0948683   2.5746973
pair_coeff 3 24   0.0010000   3.3408702
pair_coeff 8 12   0.0447214   3.0736006
pair_coeff 8 20   0.0212132   2.8865118
pair_coeff 5 12   0.0447214   3.0736006
pair_coeff 5 9   0.0154919   2.8865118
pair_coeff 5 11   0.0346410   2.9399658
pair_coeff 5 12   0.0447214   3.0736006
pair_coeff 6 8   0.0184391   2.8865118
pair_coeff 6 8   0.0184391   2.8865118
pair_coeff 6 8   0.0184391   2.8865118
pair_coeff 6 8   0.0184391   2.8865118
pair_coeff 3 10   0.0331662   3.4745050
pair_coeff 8 9   0.0154919   2.8865118
pair_coeff 8 9   0.0154919   2.8865118
pair_coeff 8 9   0.0154919   2.8865118
pair_coeff 8 9   0.0154919   2.8865118
pair_coeff 8 9   0.0154919   2.8865118
pair_coeff 8 9   0.0154919   2.8865118
pair_coeff 5 10   0.0331662   3.4745050
pair_coeff 11 13   0.0742967   1.4472650
pair_coeff 3 11   0.0346410   2.9399658
pair_coeff 6 12   0.0824621   2.5746973
pair_coeff 6 12   0.0824621   2.5746973
pair_coeff 3 12   0.0447214   3.0736006
pair_coeff 11 12   0.1549193   2.6281512
pair_coeff 12 12   0.2000000   2.7617860
pair_coeff 5 13   0.0214476   1.8927143
pair_coeff 3 20   0.0212132   2.8865118
pair_coeff 3 8   0.0100000   3.3854151
pair_coeff 3 8   0.0100000   3.3854151
pair_coeff 3 13   0.0214476   1.8927143
pair_coeff 3 3   0.0100000   3.3854151
pair_coeff 3 9   0.0154919   2.8865118
pair_coeff 8 11   0.0346410   2.9399658
pair_coeff 3 9   0.0154919   2.8865118
pair_coeff 8 12   0.0447214   3.0736006
pair_coeff 3 9   0.0154919   2.8865118
pair_coeff 5 10   0.0331662   3.4745050
pair_coeff 3 9   0.0154919   2.8865118
pair_coeff 11 13   0.0742967   1.4472650
pair_coeff 3 9   0.0154919   2.8865118
pair_coeff 3 11   0.0346410   2.9399658
pair_coeff 3 9   0.0154919   2.8865118
pair_coeff 6 12   0.0824621   2.5746973
pair_coeff 3 13   0.0214476   1.8927143
pair_coeff 6 12   0.0824621   2.5746973
pair_coeff 3 3   0.0100000   3.3854151
pair_coeff 3 12   0.0447214   3.0736006
pair_coeff 4 8   0.0148324   2.8686939
pair_coeff 11 12   0.1549193   2.6281512
pair_coeff 4 8   0.0148324   2.8686939
pair_coeff 12 12   0.2000000   2.7617860
pair_coeff 4 11   0.0513809   2.4232445
pair_coeff 5 13   0.0214476   1.8927143
pair_coeff 4 12   0.0663325   2.5568793
pair_coeff 3 20   0.0212132   2.8865118
pair_coeff 3 11   0.0346410   2.9399658
pair_coeff 3 8   0.0100000   3.3854151
pair_coeff 3 12   0.0447214   3.0736006
pair_coeff 3 8   0.0100000   3.3854151
pair_coeff 8 9   0.0154919   2.8865118
pair_coeff 3 13   0.0214476   1.8927143
pair_coeff 8 9   0.0154919   2.8865118
pair_coeff 3 3   0.0100000   3.3854151
pair_coeff 8 9   0.0154919   2.8865118
pair_coeff 3 4   0.0148324   2.8686939
pair_coeff 8 10   0.0331662   3.4745050
pair_coeff 4 11   0.0513809   2.4232445
pair_coeff 8 9   0.0154919   2.8865118
pair_coeff 4 12   0.0663325   2.5568793
pair_coeff 8 9   0.0154919   2.8865118
pair_coeff 5 9   0.0154919   2.8865118
pair_coeff 8 9   0.0154919   2.8865118
pair_coeff 5 9   0.0154919   2.8865118
pair_coeff 8 10   0.0331662   3.4745050
pair_coeff 5 9   0.0154919   2.8865118
pair_coeff 5 10   0.0331662   3.4745050
pair_coeff 5 9   0.0154919   2.8865118
pair_coeff 11 13   0.0742967   1.4472650
pair_coeff 5 9   0.0154919   2.8865118
pair_coeff 3 11   0.0346410   2.9399658
pair_coeff 5 9   0.0154919   2.8865118
pair_coeff 6 12   0.0824621   2.5746973
pair_coeff 5 11   0.0346410   2.9399658
pair_coeff 6 12   0.0824621   2.5746973
pair_coeff 5 12   0.0447214   3.0736006
pair_coeff 5 12   0.0447214   3.0736006
pair_coeff 6 8   0.0184391   2.8865118
pair_coeff 4 5   0.0148324   2.8686939
pair_coeff 11 12   0.1549193   2.6281512
pair_coeff 3 11   0.0346410   2.9399658
pair_coeff 4 11   0.0513809   2.4232445
pair_coeff 12 12   0.2000000   2.7617860
pair_coeff 9 12   0.0692820   2.5746973
pair_coeff 4 12   0.0663325   2.5568793
pair_coeff 3 13   0.0214476   1.8927143
pair_coeff 9 12   0.0692820   2.5746973
pair_coeff 14 16   0.0346410   3.2072354
pair_coeff 3 9   0.0154919   2.8865118
pair_coeff 9 12   0.0692820   2.5746973
pair_coeff 14 16   0.0346410   3.2072354
pair_coeff 3 9   0.0154919   2.8865118
pair_coeff 11 12   0.1549193   2.6281512
pair_coeff 11 14   0.0346410   2.9399658
pair_coeff 3 9   0.0154919   2.8865118
pair_coeff 12 12   0.2000000   2.7617860
pair_coeff 12 14   0.0447214   3.0736006
pair_coeff 3 6   0.0184391   2.8865118
pair_coeff 8 13   0.0214476   1.8927143
pair_coeff 5 10   0.0331662   3.4745050
pair_coeff 3 6   0.0184391   2.8865118
pair_coeff 3 13   0.0214476   1.8927143
pair_coeff 3 10   0.0331662   3.4745050
pair_coeff 3 8   0.0100000   3.3854151
pair_coeff 3 3   0.0100000   3.3854151
pair_coeff 11 13   0.0742967   1.4472650
pair_coeff 3 13   0.0214476   1.8927143
pair_coeff 4 11   0.0513809   2.4232445
pair_coeff 3 11   0.0346410   2.9399658
pair_coeff 3 3   0.0100000   3.3854151
pair_coeff 4 12   0.0663325   2.5568793
pair_coeff 12 20   0.0948683   2.5746973
pair_coeff 4 8   0.0148324   2.8686939
pair_coeff 8 11   0.0346410   2.9399658
pair_coeff 8 12   0.0447214   3.0736006
pair_coeff 4 5   0.0148324   2.8686939
pair_coeff 8 12   0.0447214   3.0736006
pair_coeff 8 12   0.0447214   3.0736006
pair_coeff 4 11   0.0513809   2.4232445
pair_coeff 5 10   0.0331662   3.4745050
pair_coeff 11 12   0.1549193   2.6281512
pair_coeff 4 12   0.0663325   2.5568793
pair_coeff 11 13   0.0742967   1.4472650
pair_coeff 12 12   0.2000000   2.7617860
pair_coeff 3 9   0.0154919   2.8865118
pair_coeff 3 11   0.0346410   2.9399658
pair_coeff 3 13   0.0214476   1.8927143
pair_coeff 3 9   0.0154919   2.8865118
pair_coeff 6 12   0.0824621   2.5746973
pair_coeff 3 9   0.0154919   2.8865118
pair_coeff 3 9   0.0154919   2.8865118
pair_coeff 6 12   0.0824621   2.5746973
pair_coeff 3 9   0.0154919   2.8865118
pair_coeff 3 11   0.0346410   2.9399658
pair_coeff 5 12   0.0447214   3.0736006
pair_coeff 3 9   0.0154919   2.8865118
pair_coeff 3 12   0.0447214   3.0736006
pair_coeff 11 12   0.1549193   2.6281512
pair_coeff 3 9   0.0154919   2.8865118
pair_coeff 8 20   0.0212132   2.8865118
pair_coeff 12 12   0.2000000   2.7617860
pair_coeff 3 9   0.0154919   2.8865118
pair_coeff 6 8   0.0184391   2.8865118
pair_coeff 5 13   0.0214476   1.8927143
pair_coeff 3 9   0.0154919   2.8865118
pair_coeff 6 8   0.0184391   2.8865118
pair_coeff 3 6   0.0184391   2.8865118
pair_coeff 3 13   0.0214476   1.8927143
pair_coeff 8 8   0.0100000   3.3854151
pair_coeff 3 6   0.0184391   2.8865118
pair_coeff 3 3   0.0100000   3.3854151
pair_coeff 8 10   0.0331662   3.4745050
pair_coeff 3 5   0.0100000   3.3854151
pair_coeff 4 8   0.0148324   2.8686939
pair_coeff 5 9   0.0154919   2.8865118
pair_coeff 3 13   0.0214476   1.8927143
pair_coeff 4 8   0.0148324   2.8686939
pair_coeff 5 9   0.0154919   2.8865118
pair_coeff 3 3   0.0100000   3.3854151
pair_coeff 4 11   0.0513809   2.4232445
pair_coeff 5 9   0.0154919   2.8865118
pair_coeff 4 5   0.0148324   2.8686939
pair_coeff 6 8   0.0184391   2.8865118
pair_coeff 4 25   0.0148324   2.8686939
pair_coeff 6 8   0.0184391   2.8865118
pair_coeff 6 25   0.0184391   2.8865118
pair_coeff 8 8   0.0100000   3.3854151
pair_coeff 6 25   0.0184391   2.8865118
pair_coeff 8 10   0.0331662   3.4745050
pair_coeff 10 25   0.0331662   3.4745050
pair_coeff 5 9   0.0154919   2.8865118
pair_coeff 6 26   0.0184391   2.8865118
pair_coeff 5 9   0.0154919   2.8865118
pair_coeff 6 27   0.0184391   2.8865118
pair_coeff 5 9   0.0154919   2.8865118
pair_coeff 6 26   0.0184391   2.8865118
pair_coeff 5 10   0.0331662   3.4745050
pair_coeff 6 27   0.0184391   2.8865118
pair_coeff 10 27   0.0331662   3.4745050
pair_coeff 6 26   0.0184391   2.8865118
pair_coeff 10 27   0.0331662   3.4745050
pair_coeff 6 26   0.0184391   2.8865118
pair_coeff 11 25   0.0346410   2.9399658
pair_coeff 13 26   0.0214476   1.8927143
pair_coeff 11 26   0.0346410   2.9399658
pair_coeff 3 26   0.0100000   3.3854151
pair_coeff 6 24   0.0018439   2.8419669
pair_coeff 4 27   0.0148324   2.8686939
pair_coeff 6 24   0.0018439   2.8419669
pair_coeff 4 11   0.0513809   2.4232445
pair_coeff 6 24   0.0018439   2.8419669
pair_coeff 4 12   0.0663325   2.5568793
pair_coeff 6 24   0.0018439   2.8419669
pair_coeff 11 27   0.0346410   2.9399658
pair_coeff 11 24   0.0034641   2.8954208
pair_coeff 12 27   0.0447214   3.0736006
pair_coeff 12 24   0.0044721   3.0290556
pair_coeff 10 27   0.0331662   3.4745050
pair_coeff 4 25   0.0148324   2.8686939
pair_coeff 10 14   0.0331662   3.4745050
pair_coeff 6 25   0.0184391   2.8865118
pair_coeff 11 13   0.0742967   1.4472650
pair_coeff 6 25   0.0184391   2.8865118
pair_coeff 3 11   0.0346410   2.9399658
pair_coeff 10 25   0.0331662   3.4745050
pair_coeff 6 12   0.0824621   2.5746973
pair_coeff 6 26   0.0184391   2.8865118
pair_coeff 6 12   0.0824621   2.5746973
pair_coeff 6 27   0.0184391   2.8865118
pair_coeff 5 12   0.0447214   3.0736006
pair_coeff 6 26   0.0184391   2.8865118
pair_coeff 11 12   0.1549193   2.6281512
pair_coeff 6 27   0.0184391   2.8865118
pair_coeff 12 12   0.2000000   2.7617860
pair_coeff 6 26   0.0184391   2.8865118
pair_coeff 13 14   0.0214476   1.8927143
pair_coeff 6 26   0.0184391   2.8865118
pair_coeff 3 6   0.0184391   2.8865118
pair_coeff 3 4   0.0148324   2.8686939
pair_coeff 6 8   0.0184391   2.8865118
pair_coeff 4 11   0.0513809   2.4232445
pair_coeff 6 8   0.0184391   2.8865118
pair_coeff 4 12   0.0663325   2.5568793
pair_coeff 6 8   0.0184391   2.8865118
pair_coeff 5 9   0.0154919   2.8865118
pair_coeff 3 10   0.0331662   3.4745050
pair_coeff 5 9   0.0154919   2.8865118
pair_coeff 8 9   0.0154919   2.8865118
pair_coeff 5 9   0.0154919   2.8865118
pair_coeff 8 9   0.0154919   2.8865118
pair_coeff 5 9   0.0154919   2.8865118
pair_coeff 8 9   0.0154919   2.8865118
pair_coeff 5 9   0.0154919   2.8865118
pair_coeff 8 9   0.0154919   2.8865118
pair_coeff 5 9   0.0154919   2.8865118
pair_coeff 8 9   0.0154919   2.8865118
pair_coeff 5 11   0.0346410   2.9399658
pair_coeff 8 9   0.0154919   2.8865118
pair_coeff 5 12   0.0447214   3.0736006
pair_coeff 8 10   0.0331662   3.4745050
pair_coeff 6 8   0.0184391   2.8865118
pair_coeff 11 13   0.0742967   1.4472650
pair_coeff 6 8   0.0184391   2.8865118
pair_coeff 3 11   0.0346410   2.9399658
pair_coeff 6 8   0.0184391   2.8865118
pair_coeff 9 12   0.0692820   2.5746973
pair_coeff 6 8   0.0184391   2.8865118
pair_coeff 9 12   0.0692820   2.5746973
pair_coeff 3 10   0.0331662   3.4745050
pair_coeff 9 12   0.0692820   2.5746973
pair_coeff 8 9   0.0154919   2.8865118
pair_coeff 11 12   0.1549193   2.6281512
pair_coeff 8 9   0.0154919   2.8865118
pair_coeff 12 12   0.2000000   2.7617860
pair_coeff 8 9   0.0154919   2.8865118
pair_coeff 8 13   0.0214476   1.8927143
pair_coeff 8 9   0.0154919   2.8865118
pair_coeff 3 13   0.0214476   1.8927143
pair_coeff 8 9   0.0154919   2.8865118
pair_coeff 3 3   0.0100000   3.3854151
pair_coeff 8 9   0.0154919   2.8865118
pair_coeff 4 11   0.0513809   2.4232445
pair_coeff 3 10   0.0331662   3.4745050
pair_coeff 4 12   0.0663325   2.5568793
pair_coeff 11 13   0.0742967   1.4472650
pair_coeff 8 11   0.0346410   2.9399658
pair_coeff 3 11   0.0346410   2.9399658
pair_coeff 8 12   0.0447214   3.0736006
pair_coeff 12 20   0.0948683   2.5746973
pair_coeff 5 10   0.0331662   3.4745050
pair_coeff 8 12   0.0447214   3.0736006
pair_coeff 11 13   0.0742967   1.4472650
pair_coeff 5 12   0.0447214   3.0736006
pair_coeff 3 11   0.0346410   2.9399658
pair_coeff 4 12   0.0663325   2.5568793
pair_coeff 11 12   0.1549193   2.6281512
pair_coeff 4 11   0.0513809   2.4232445
pair_coeff 3 11   0.0346410   2.9399658
pair_coeff 12 12   0.2000000   2.7617860
pair_coeff 4 12   0.0663325   2.5568793
pair_coeff 3 12   0.0447214   3.0736006
pair_coeff 5 13   0.0214476   1.8927143
pair_coeff 5 6   0.0184391   2.8865118
pair_coeff 8 9   0.0154919   2.8865118
pair_coeff 3 6   0.0184391   2.8865118
pair_coeff 5 6   0.0184391   2.8865118
pair_coeff 8 9   0.0154919   2.8865118
pair_coeff 3 6   0.0184391   2.8865118
pair_coeff 5 23   0.0447214   3.3408702
pair_coeff 8 9   0.0154919   2.8865118
pair_coeff 3 5   0.0100000   3.3854151
pair_coeff 5 11   0.0346410   2.9399658
pair_coeff 8 10   0.0331662   3.4745050
pair_coeff 3 13   0.0214476   1.8927143
pair_coeff 5 12   0.0447214   3.0736006
pair_coeff 8 9   0.0154919   2.8865118
pair_coeff 3 3   0.0100000   3.3854151
pair_coeff 5 6   0.0184391   2.8865118
pair_coeff 8 9   0.0154919   2.8865118
pair_coeff 4 5   0.0148324   2.8686939
pair_coeff 5 6   0.0184391   2.8865118
pair_coeff 8 9   0.0154919   2.8865118
pair_coeff 4 11   0.0513809   2.4232445
pair_coeff 2 5   0.0214476   1.8927143
pair_coeff 8 10   0.0331662   3.4745050