units real
atom_style full

dimension 3
boundary p p p

bond_style hybrid harmonic
angle_style hybrid harmonic charmm
dihedral_style hybrid charmm multi/harmonic
improper_style hybrid harmonic
special_bonds lj 0.0 0.0 1.0 coul 0.0 0.0 1.0

read_data complex_converted.lmp

pair_style lj/cut/coul/long 9.0 9.0
pair_modify tail yes
kspace_style pppm 1e-8

pair_coeff 1 1   0.2000000   3.2963253
pair_coeff 2 2   0.0459990   0.4000135
pair_coeff 3 3   0.0320005   3.5635949
pair_coeff 4 4   0.0220005   2.3519726
pair_coeff 5 5   0.0450000   2.3876086
pair_coeff 6 6   0.0779995   3.6348668
pair_coeff 7 7   0.0240010   2.3876086
pair_coeff 8 8   0.0559990   3.5814128
pair_coeff 9 9   0.0340010   2.3876086
pair_coeff 10 10   0.1100000   3.5635949
pair_coeff 11 11   0.1200000   3.0290556
pair_coeff 12 12   0.2000000   3.2963253
pair_coeff 13 13   0.0459990   0.4000135
pair_coeff 14 14   0.0279995   2.3876086
pair_coeff 15 15   0.0700000   3.5635949
pair_coeff 16 16   0.2000000   3.2963253
pair_coeff 17 17   0.0559990   3.5814128
pair_coeff 18 18   0.1200000   3.0290556
pair_coeff 19 19   0.3800000   3.5190499
pair_coeff 20 20   0.2000000   3.2963253
pair_coeff 21 21   0.0550000   3.8754094
pair_coeff 22 22   0.0200000   4.0535892
pair_coeff 23 23   0.0550000   3.8754094
pair_coeff 24 24   0.0729995   3.5457769
pair_coeff 25 25   0.0700000   3.5500532
pair_coeff 26 26   0.0300000   2.4200373
pair_coeff 27 27   0.2000000   3.2963253
pair_coeff 28 28   0.0990010   3.3141432
pair_coeff 29 29   0.0729995   3.5457769
pair_coeff 30 30   0.1521009   3.1537815
pair_coeff 31 31   0.2000000   3.2963253
pair_coeff 32 32   0.0500000   3.2072354
pair_coeff 33 33   0.0500000   3.2072354
pair_coeff 34 34   0.0459990   1.6036177
pair_coeff 35 35   0.2000000   3.2963253
pair_coeff 36 36   0.0078011   2.6156786
pair_coeff 37 37   0.2000000   3.2963253
pair_coeff 38 38   0.4500000   3.5635949
pair_coeff 39 39   0.1000000   0.8018088
pair_coeff 3 7   0.0154919   2.8865118
pair_coeff 25 26   0.0458258   2.9850452
pair_coeff 11 12   0.1549193   2.6281512
pair_coeff 6 9   0.0184391   2.8865118
pair_coeff 3 7   0.0154919   2.8865118
pair_coeff 26 30   0.0675500   2.7869094
pair_coeff 12 12   0.2000000   2.7617860
pair_coeff 6 9   0.0184391   2.8865118
pair_coeff 3 7   0.0154919   2.8865118
pair_coeff 25 26   0.0458258   2.9850452
pair_coeff 8 13   0.0214476   1.8927143
pair_coeff 8 10   0.0331662   3.4745050
pair_coeff 3 7   0.0154919   2.8865118
pair_coeff 25 26   0.0458258   2.9850452
pair_coeff 3 5   0.0212132   2.8865118
pair_coeff 11 13   0.0742967   1.4472650
pair_coeff 3 13   0.0214476   1.8927143
pair_coeff 26 30   0.0675500   2.7869094
pair_coeff 3 6   0.0100000   3.3854151
pair_coeff 3 11   0.0346410   2.9399658
pair_coeff 3 8   0.0100000   3.3854151
pair_coeff 26 26   0.0300000   2.4200373
pair_coeff 3 6   0.0100000   3.3854151
pair_coeff 9 12   0.0824621   2.5746973
pair_coeff 4 6   0.0148324   2.8686939
pair_coeff 8 10   0.0331662   3.4745050
pair_coeff 3 13   0.0214476   1.8927143
pair_coeff 9 12   0.0824621   2.5746973
pair_coeff 4 6   0.0148324   2.8686939
pair_coeff 11 13   0.0742967   1.4472650
pair_coeff 3 3   0.0100000   3.3854151
pair_coeff 8 12   0.0447214   3.0736006
pair_coeff 4 11   0.0513809   2.4232445
pair_coeff 3 11   0.0346410   2.9399658
pair_coeff 3 4   0.0148324   2.8686939
pair_coeff 11 12   0.1549193   2.6281512
pair_coeff 4 12   0.0663325   2.5568793
pair_coeff 9 12   0.0824621   2.5746973
pair_coeff 4 11   0.0513809   2.4232445
pair_coeff 12 12   0.2000000   2.7617860
pair_coeff 3 11   0.0346410   2.9399658
pair_coeff 9 12   0.0824621   2.5746973
pair_coeff 4 12   0.0663325   2.5568793
pair_coeff 8 13   0.0214476   1.8927143
pair_coeff 3 12   0.0447214   3.0736006
pair_coeff 8 12   0.0447214   3.0736006
pair_coeff 7 8   0.0154919   2.8865118
pair_coeff 3 9   0.0184391   2.8865118
pair_coeff 6 7   0.0154919   2.8865118
pair_coeff 11 12   0.1549193   2.6281512
pair_coeff 7 8   0.0154919   2.8865118
pair_coeff 3 9   0.0184391   2.8865118
pair_coeff 6 7   0.0154919   2.8865118
pair_coeff 12 12   0.2000000   2.7617860
pair_coeff 7 8   0.0154919   2.8865118
pair_coeff 3 8   0.0100000   3.3854151
pair_coeff 6 7   0.0154919   2.8865118
pair_coeff 8 13   0.0214476   1.8927143
pair_coeff 7 8   0.0154919   2.8865118
pair_coeff 3 13   0.0214476   1.8927143
pair_coeff 6 10   0.0331662   3.4745050
pair_coeff 3 9   0.0184391   2.8865118
pair_coeff 7 8   0.0154919   2.8865118
pair_coeff 3 3   0.0100000   3.3854151
pair_coeff 6 7   0.0154919   2.8865118
pair_coeff 3 9   0.0184391   2.8865118
pair_coeff 7 8   0.0154919   2.8865118
pair_coeff 4 8   0.0148324   2.8686939
pair_coeff 6 7   0.0154919   2.8865118
pair_coeff 3 15   0.0264575   3.4745050
pair_coeff 8 11   0.0346410   2.9399658
pair_coeff 4 11   0.0513809   2.4232445
pair_coeff 6 7   0.0154919   2.8865118
pair_coeff 3 13   0.0214476   1.8927143
pair_coeff 8 12   0.0447214   3.0736006
pair_coeff 4 12   0.0663325   2.5568793
pair_coeff 6 10   0.0331662   3.4745050
pair_coeff 3 3   0.0100000   3.3854151
pair_coeff 6 9   0.0184391   2.8865118
pair_coeff 8 9   0.0184391   2.8865118
pair_coeff 11 13   0.0742967   1.4472650
pair_coeff 4 8   0.0148324   2.8686939
pair_coeff 6 9   0.0184391   2.8865118
pair_coeff 8 9   0.0184391   2.8865118
pair_coeff 8 11   0.0346410   2.9399658
pair_coeff 4 11   0.0513809   2.4232445
pair_coeff 6 9   0.0184391   2.8865118
pair_coeff 8 8   0.0100000   3.3854151
pair_coeff 11 12   0.1549193   2.6281512
pair_coeff 4 12   0.0663325   2.5568793
pair_coeff 6 9   0.0184391   2.8865118
pair_coeff 8 11   0.0346410   2.9399658
pair_coeff 12 12   0.2000000   2.7617860
pair_coeff 8 11   0.0346410   2.9399658
pair_coeff 3 10   0.0331662   3.4745050
pair_coeff 8 12   0.0447214   3.0736006
pair_coeff 8 13   0.0214476   1.8927143
pair_coeff 8 16   0.0447214   3.3408702
pair_coeff 6 7   0.0154919   2.8865118
pair_coeff 8 9   0.0184391   2.8865118
pair_coeff 8 8   0.0100000   3.3854151
pair_coeff 8 11   0.0346410   2.9399658
pair_coeff 6 7   0.0154919   2.8865118
pair_coeff 8 9   0.0184391   2.8865118
pair_coeff 11 14   0.0579655   2.4410625
pair_coeff 8 12   0.0447214   3.0736006
pair_coeff 6 7   0.0154919   2.8865118
pair_coeff 8 9   0.0184391   2.8865118
pair_coeff 12 14   0.0748331   2.5746973
pair_coeff 8 13   0.0214476   1.8927143
pair_coeff 6 7   0.0154919   2.8865118
pair_coeff 8 9   0.0184391   2.8865118
pair_coeff 6 10   0.0331662   3.4745050
pair_coeff 8 10   0.0331662   3.4745050
pair_coeff 11 13   0.0742967   1.4472650
pair_coeff 3 11   0.0346410   2.9399658
pair_coeff 9 12   0.0824621   2.5746973
pair_coeff 9 12   0.0824621   2.5746973
pair_coeff 12 25   0.1183216   3.1559196
pair_coeff 11 12   0.1549193   2.6281512
pair_coeff 12 12   0.2000000   2.7617860
pair_coeff 8 13   0.0214476   1.8927143
pair_coeff 3 25   0.0264575   3.4677342
pair_coeff 3 25   0.0264575   3.4677342
pair_coeff 3 13   0.0214476   1.8927143
pair_coeff 3 3   0.0100000   3.3854151
pair_coeff 4 11   0.0513809   2.4232445
pair_coeff 4 12   0.0663325   2.5568793
pair_coeff 8 26   0.0173205   2.9027262
pair_coeff 8 25   0.0264575   3.4677342
pair_coeff 8 26   0.0173205   2.9027262
pair_coeff 8 25   0.0264575   3.4677342
pair_coeff 8 11   0.0346410   2.9399658
pair_coeff 8 12   0.0447214   3.0736006
pair_coeff 25 26   0.0458258   2.9850452
pair_coeff 25 26   0.0458258   2.9850452
pair_coeff 25 26   0.0458258   2.9850452
pair_coeff 26 26   0.0300000   2.4200373
pair_coeff 25 26   0.0458258   2.9850452
pair_coeff 25 26   0.0458258   2.9850452
pair_coeff 11 14   0.0579655   2.4410625
pair_coeff 1 8   0.0447214   3.3408702
pair_coeff 12 14   0.0748331   2.5746973
pair_coeff 8 10   0.0331662   3.4745050
pair_coeff 11 13   0.0742967   1.4472650
pair_coeff 8 9   0.0184391   2.8865118
pair_coeff 8 11   0.0346410   2.9399658
pair_coeff 8 9   0.0184391   2.8865118
pair_coeff 11 12   0.1549193   2.6281512
pair_coeff 2 8   0.0214476   1.8927143
pair_coeff 12 12   0.2000000   2.7617860
pair_coeff 2 8   0.0214476   1.8927143
pair_coeff 8 13   0.0214476   1.8927143
pair_coeff 2 8   0.0214476   1.8927143
pair_coeff 3 8   0.0100000   3.3854151
pair_coeff 3 10   0.0331662   3.4745050
pair_coeff 11 14   0.0579655   2.4410625
pair_coeff 11 13   0.0742967   1.4472650
pair_coeff 12 14   0.0748331   2.5746973
pair_coeff 3 11   0.0346410   2.9399658
pair_coeff 11 14   0.0579655   2.4410625
pair_coeff 5 12   0.0948683   2.5746973
pair_coeff 12 14   0.0748331   2.5746973
pair_coeff 12 30   0.1744133   2.9577837
pair_coeff 8 10   0.0331662   3.4745050
pair_coeff 6 12   0.0447214   3.0736006
pair_coeff 11 13   0.0742967   1.4472650
pair_coeff 11 12   0.1549193   2.6281512
pair_coeff 3 11   0.0346410   2.9399658
pair_coeff 12 12   0.2000000   2.7617860
pair_coeff 9 12   0.0824621   2.5746973
pair_coeff 3 13   0.0214476   1.8927143
pair_coeff 9 12   0.0824621   2.5746973
pair_coeff 3 13   0.0214476   1.8927143
pair_coeff 8 12   0.0447214   3.0736006
pair_coeff 3 7   0.0154919   2.8865118
pair_coeff 11 12   0.1549193   2.6281512
pair_coeff 3 7   0.0154919   2.8865118
pair_coeff 12 12   0.2000000   2.7617860
pair_coeff 3 7   0.0154919   2.8865118
pair_coeff 8 13   0.0214476   1.8927143
pair_coeff 3 13   0.0214476   1.8927143
pair_coeff 3 9   0.0184391   2.8865118
pair_coeff 3 3   0.0100000   3.3854151
pair_coeff 3 9   0.0184391   2.8865118
pair_coeff 4 6   0.0148324   2.8686939
pair_coeff 3 15   0.0264575   3.4745050
pair_coeff 4 11   0.0513809   2.4232445
pair_coeff 3 13   0.0214476   1.8927143
pair_coeff 4 12   0.0663325   2.5568793
pair_coeff 3 3   0.0100000   3.3854151
pair_coeff 3 11   0.0346410   2.9399658
pair_coeff 4 8   0.0148324   2.8686939
pair_coeff 3 12   0.0447214   3.0736006
pair_coeff 4 11   0.0513809   2.4232445
pair_coeff 6 13   0.0214476   1.8927143
pair_coeff 8 13   0.0214476   1.8927143
pair_coeff 3 13   0.0214476   1.8927143
pair_coeff 6 7   0.0154919   2.8865118
pair_coeff 8 12   0.0447214   3.0736006
pair_coeff 8 10   0.0331662   3.4745050
pair_coeff 3 3   0.0100000   3.3854151
pair_coeff 6 7   0.0154919   2.8865118
pair_coeff 11 12   0.1549193   2.6281512
pair_coeff 9 11   0.0638749   2.4410625
pair_coeff 4 8   0.0148324   2.8686939
pair_coeff 8 10   0.0331662   3.4745050
pair_coeff 12 12   0.2000000   2.7617860
pair_coeff 9 11   0.0638749   2.4410625
pair_coeff 4 11   0.0513809   2.4232445
pair_coeff 11 13   0.0742967   1.4472650
pair_coeff 8 13   0.0214476   1.8927143
pair_coeff 11 13   0.0742967   1.4472650
pair_coeff 4 12   0.0663325   2.5568793
pair_coeff 3 11   0.0346410   2.9399658
pair_coeff 3 9   0.0184391   2.8865118
pair_coeff 11 13   0.0742967   1.4472650
pair_coeff 17 18   0.0346410   3.2072354
pair_coeff 9 12   0.0824621   2.5746973
pair_coeff 3 9   0.0184391   2.8865118
pair_coeff 6 10   0.0331662   3.4745050
pair_coeff 17 18   0.0346410   3.2072354
pair_coeff 9 12   0.0824621   2.5746973
pair_coeff 3 8   0.0100000   3.3854151
pair_coeff 11 13   0.0742967   1.4472650
pair_coeff 11 17   0.0346410   2.9399658
pair_coeff 8 12   0.0447214   3.0736006
pair_coeff 3 13   0.0214476   1.8927143
pair_coeff 3 11   0.0346410   2.9399658
pair_coeff 12 17   0.0447214   3.0736006
pair_coeff 11 12   0.1549193   2.6281512
pair_coeff 3 3   0.0100000   3.3854151
pair_coeff 7 12   0.0692820   2.5746973
pair_coeff 8 10   0.0331662   3.4745050
pair_coeff 12 12   0.2000000   2.7617860
pair_coeff 4 8   0.0148324   2.8686939
pair_coeff 7 12   0.0692820   2.5746973
pair_coeff 3 10   0.0331662   3.4745050
pair_coeff 8 13   0.0214476   1.8927143
pair_coeff 4 11   0.0513809   2.4232445
pair_coeff 7 12   0.0692820   2.5746973
pair_coeff 11 13   0.0742967   1.4472650
pair_coeff 3 9   0.0184391   2.8865118
pair_coeff 4 12   0.0663325   2.5568793
pair_coeff 11 12   0.1549193   2.6281512
pair_coeff 3 11   0.0346410   2.9399658
pair_coeff 3 9   0.0184391   2.8865118
pair_coeff 8 9   0.0184391   2.8865118
pair_coeff 12 12   0.2000000   2.7617860
pair_coeff 5 12   0.0948683   2.5746973
pair_coeff 3 38   0.0670820   3.4745050
pair_coeff 8 9   0.0184391   2.8865118
pair_coeff 6 13   0.0214476   1.8927143
pair_coeff 12 30   0.1744133   2.9577837
pair_coeff 3 13   0.0214476   1.8927143
pair_coeff 8 8   0.0100000   3.3854151
pair_coeff 3 13   0.0214476   1.8927143
pair_coeff 6 12   0.0447214   3.0736006
pair_coeff 3 3   0.0100000   3.3854151
pair_coeff 8 11   0.0346410   2.9399658
pair_coeff 3 3   0.0100000   3.3854151
pair_coeff 11 12   0.1549193   2.6281512
pair_coeff 4 8   0.0148324   2.8686939
pair_coeff 8 12   0.0447214   3.0736006
pair_coeff 4 11   0.0513809   2.4232445
pair_coeff 12 12   0.2000000   2.7617860
pair_coeff 4 11   0.0513809   2.4232445
pair_coeff 8 9   0.0184391   2.8865118
pair_coeff 4 12   0.0663325   2.5568793
pair_coeff 3 13   0.0214476   1.8927143
pair_coeff 4 12   0.0663325   2.5568793
pair_coeff 8 9   0.0184391   2.8865118
pair_coeff 6 11   0.0346410   2.9399658
pair_coeff 3 13   0.0214476   1.8927143
pair_coeff 6 8   0.0100000   3.3854151
pair_coeff 8 9   0.0184391   2.8865118
pair_coeff 6 12   0.0447214   3.0736006
pair_coeff 3 7   0.0154919   2.8865118
pair_coeff 8 11   0.0346410   2.9399658
pair_coeff 8 9   0.0184391   2.8865118
pair_coeff 8 10   0.0331662   3.4745050
pair_coeff 3 7   0.0154919   2.8865118
pair_coeff 8 12   0.0447214   3.0736006
pair_coeff 1 8   0.0447214   3.3408702
pair_coeff 11 13   0.0742967   1.4472650
pair_coeff 3 7   0.0154919   2.8865118
pair_coeff 7 8   0.0154919   2.8865118
pair_coeff 8 10   0.0331662   3.4745050
pair_coeff 3 11   0.0346410   2.9399658
pair_coeff 3 13   0.0214476   1.8927143
pair_coeff 7 8   0.0154919   2.8865118
pair_coeff 8 9   0.0184391   2.8865118
pair_coeff 9 12   0.0824621   2.5746973
pair_coeff 3 3   0.0100000   3.3854151
pair_coeff 7 8   0.0154919   2.8865118
pair_coeff 8 9   0.0184391   2.8865118
pair_coeff 9 12   0.0824621   2.5746973
pair_coeff 4 6   0.0148324   2.8686939
pair_coeff 8 10   0.0331662   3.4745050
pair_coeff 2 8   0.0214476   1.8927143
pair_coeff 8 12   0.0447214   3.0736006
pair_coeff 4 11   0.0513809   2.4232445
pair_coeff 6 9   0.0184391   2.8865118
pair_coeff 2 8   0.0214476   1.8927143
pair_coeff 11 12   0.1549193   2.6281512
pair_coeff 4 12   0.0663325   2.5568793
pair_coeff 6 9   0.0184391   2.8865118
pair_coeff 2 8   0.0214476   1.8927143
pair_coeff 4 12   0.0663325   2.5568793
pair_coeff 12 12   0.2000000   2.7617860
pair_coeff 25 26   0.0458258   2.9850452
pair_coeff 8 11   0.0346410   2.9399658
pair_coeff 8 13   0.0214476   1.8927143
pair_coeff 26 30   0.0675500   2.7869094
pair_coeff 8 16   0.0447214   3.3408702
pair_coeff 3 9   0.0184391   2.8865118
pair_coeff 25 26   0.0458258   2.9850452
pair_coeff 8 11   0.0346410   2.9399658
pair_coeff 3 9   0.0184391   2.8865118
pair_coeff 25 26   0.0458258   2.9850452
pair_coeff 8 12   0.0447214   3.0736006
pair_coeff 3 8   0.0100000   3.3854151
pair_coeff 26 30   0.0675500   2.7869094
pair_coeff 8 13   0.0214476   1.8927143
pair_coeff 3 13   0.0214476   1.8927143
pair_coeff 26 26   0.0300000   2.4200373
pair_coeff 8 13   0.0214476   1.8927143
pair_coeff 3 3   0.0100000   3.3854151
pair_coeff 8 10   0.0331662   3.4745050
pair_coeff 8 10   0.0331662   3.4745050
pair_coeff 4 8   0.0148324   2.8686939
pair_coeff 11 13   0.0742967   1.4472650
pair_coeff 9 11   0.0638749   2.4410625
pair_coeff 4 11   0.0513809   2.4232445
pair_coeff 3 11   0.0346410   2.9399658
pair_coeff 9 11   0.0638749   2.4410625
pair_coeff 4 12   0.0663325   2.5568793
pair_coeff 9 12   0.0824621   2.5746973
pair_coeff 11 13   0.0742967   1.4472650
pair_coeff 8 9   0.0184391   2.8865118
pair_coeff 9 12   0.0824621   2.5746973
pair_coeff 11 13   0.0742967   1.4472650
pair_coeff 8 9   0.0184391   2.8865118
pair_coeff 12 25   0.1183216   3.1559196
pair_coeff 10 17   0.0331662   3.4745050
pair_coeff 8 8   0.0100000   3.3854151
pair_coeff 11 12   0.1549193   2.6281512
pair_coeff 11 13   0.0742967   1.4472650
pair_coeff 8 11   0.0346410   2.9399658
pair_coeff 12 12   0.2000000   2.7617860
pair_coeff 3 11   0.0346410   2.9399658
pair_coeff 8 12   0.0447214   3.0736006
pair_coeff 8 13   0.0214476   1.8927143
pair_coeff 9 12   0.0824621   2.5746973
pair_coeff 8 9   0.0184391   2.8865118
pair_coeff 3 25   0.0264575   3.4677342
pair_coeff 9 12   0.0824621   2.5746973
pair_coeff 8 9   0.0184391   2.8865118
pair_coeff 3 25   0.0264575   3.4677342
pair_coeff 8 12   0.0447214   3.0736006
pair_coeff 8 9   0.0184391   2.8865118
pair_coeff 3 13   0.0214476   1.8927143
pair_coeff 11 12   0.1549193   2.6281512
pair_coeff 8 9   0.0184391   2.8865118
pair_coeff 3 3   0.0100000   3.3854151
pair_coeff 12 12   0.2000000   2.7617860
pair_coeff 1 8   0.0447214   3.3408702
pair_coeff 4 11   0.0513809   2.4232445
pair_coeff 13 17   0.0214476   1.8927143
pair_coeff 8 10   0.0331662   3.4745050
pair_coeff 4 12   0.0663325   2.5568793
pair_coeff 3 9   0.0184391   2.8865118
pair_coeff 8 9   0.0184391   2.8865118
pair_coeff 8 26   0.0173205   2.9027262
pair_coeff 3 9   0.0184391   2.8865118
pair_coeff 8 9   0.0184391   2.8865118
pair_coeff 8 25   0.0264575   3.4677342
pair_coeff 3 15   0.0264575   3.4745050
pair_coeff 2 8   0.0214476   1.8927143
pair_coeff 8 26   0.0173205   2.9027262
pair_coeff 3 13   0.0214476   1.8927143
pair_coeff 2 8   0.0214476   1.8927143
pair_coeff 8 25   0.0264575   3.4677342
pair_coeff 3 3   0.0100000   3.3854151
pair_coeff 2 8   0.0214476   1.8927143
pair_coeff 8 11   0.0346410   2.9399658
pair_coeff 4 8   0.0148324   2.8686939
pair_coeff 8 10   0.0331662   3.4745050
pair_coeff 8 12   0.0447214   3.0736006
pair_coeff 4 11   0.0513809   2.4232445
pair_coeff 11 13   0.0742967   1.4472650
pair_coeff 25 26   0.0458258   2.9850452
pair_coeff 3 11   0.0346410   2.9399658
pair_coeff 3 12   0.0447214   3.0736006
pair_coeff 6 13   0.0214476   1.8927143
pair_coeff 6 10   0.0331662   3.4745050
pair_coeff 8 10   0.0331662   3.4745050
pair_coeff 11 13   0.0742967   1.4472650
pair_coeff 3 11   0.0346410   2.9399658
pair_coeff 9 12   0.0824621   2.5746973
pair_coeff 9 12   0.0824621   2.5746973
pair_coeff 12 25   0.1183216   3.1559196
pair_coeff 11 12   0.1549193   2.6281512
pair_coeff 12 12   0.2000000   2.7617860
pair_coeff 8 13   0.0214476   1.8927143
pair_coeff 3 25   0.0264575   3.4677342
pair_coeff 3 25   0.0264575   3.4677342
pair_coeff 3 13   0.0214476   1.8927143
pair_coeff 3 3   0.0100000   3.3854151
pair_coeff 4 11   0.0513809   2.4232445
pair_coeff 4 12   0.0663325   2.5568793
pair_coeff 8 26   0.0173205   2.9027262
pair_coeff 8 25   0.0264575   3.4677342
pair_coeff 8 26   0.0173205   2.9027262
pair_coeff 8 25   0.0264575   3.4677342
pair_coeff 8 11   0.0346410   2.9399658
pair_coeff 8 12   0.0447214   3.0736006
pair_coeff 25 26   0.0458258   2.9850452
pair_coeff 25 26   0.0458258   2.9850452
pair_coeff 25 26   0.0458258   2.9850452
pair_coeff 4 12   0.0663325   2.5568793
pair_coeff 3 10   0.0331662   3.4745050
pair_coeff 6 10   0.0331662   3.4745050
pair_coeff 17 18   0.0346410   3.2072354
pair_coeff 11 13   0.0742967   1.4472650
pair_coeff 8 10   0.0331662   3.4745050
pair_coeff 17 18   0.0346410   3.2072354
pair_coeff 3 11   0.0346410   2.9399658
pair_coeff 11 13   0.0742967   1.4472650
pair_coeff 11 17   0.0346410   2.9399658
pair_coeff 5 12   0.0948683   2.5746973
pair_coeff 3 11   0.0346410   2.9399658
pair_coeff 12 17   0.0447214   3.0736006
pair_coeff 12 30   0.1744133   2.9577837
pair_coeff 9 12   0.0824621   2.5746973
pair_coeff 8 10   0.0331662   3.4745050
pair_coeff 6 12   0.0447214   3.0736006
pair_coeff 9 12   0.0824621   2.5746973
pair_coeff 8 10   0.0331662   3.4745050
pair_coeff 11 12   0.1549193   2.6281512
pair_coeff 8 12   0.0447214   3.0736006
pair_coeff 11 13   0.0742967   1.4472650
pair_coeff 12 12   0.2000000   2.7617860
pair_coeff 11 12   0.1549193   2.6281512
pair_coeff 3 11   0.0346410   2.9399658
pair_coeff 3 13   0.0214476   1.8927143
pair_coeff 12 12   0.2000000   2.7617860
pair_coeff 9 12   0.0824621   2.5746973
pair_coeff 3 13   0.0214476   1.8927143
pair_coeff 8 13   0.0214476   1.8927143
pair_coeff 9 12   0.0824621   2.5746973
pair_coeff 3 7   0.0154919   2.8865118
pair_coeff 3 9   0.0184391   2.8865118
pair_coeff 12 19   0.2756810   3.1404180
pair_coeff 3 7   0.0154919   2.8865118
pair_coeff 3 9   0.0184391   2.8865118
pair_coeff 11 12   0.1549193   2.6281512
pair_coeff 3 7   0.0154919   2.8865118
pair_coeff 3 8   0.0100000   3.3854151
pair_coeff 12 12   0.2000000   2.7617860
pair_coeff 3 13   0.0214476   1.8927143
pair_coeff 3 13   0.0214476   1.8927143
pair_coeff 8 13   0.0214476   1.8927143
pair_coeff 3 3   0.0100000   3.3854151
pair_coeff 3 8   0.0100000   3.3854151
pair_coeff 3 13   0.0214476   1.8927143
pair_coeff 4 6   0.0148324   2.8686939
pair_coeff 4 8   0.0148324   2.8686939
pair_coeff 3 3   0.0100000   3.3854151
pair_coeff 4 11   0.0513809   2.4232445
pair_coeff 4 11   0.0513809   2.4232445
pair_coeff 3 19   0.0616441   3.4522325
pair_coeff 4 12   0.0663325   2.5568793
pair_coeff 4 12   0.0663325   2.5568793
pair_coeff 4 11   0.0513809   2.4232445
pair_coeff 3 11   0.0346410   2.9399658
pair_coeff 8 9   0.0184391   2.8865118
pair_coeff 4 12   0.0663325   2.5568793
pair_coeff 3 12   0.0447214   3.0736006
pair_coeff 8 9   0.0184391   2.8865118
pair_coeff 8 11   0.0346410   2.9399658
pair_coeff 6 13   0.0214476   1.8927143
pair_coeff 8 37   0.0447214   3.3408702
pair_coeff 8 12   0.0447214   3.0736006
pair_coeff 6 10   0.0331662   3.4745050
pair_coeff 8 11   0.0346410   2.9399658
pair_coeff 8 8   0.0100000   3.3854151
pair_coeff 8 10   0.0331662   3.4745050
pair_coeff 8 12   0.0447214   3.0736006
pair_coeff 3 19   0.0616441   3.4522325
pair_coeff 11 13   0.0742967   1.4472650
pair_coeff 8 9   0.0184391   2.8865118
pair_coeff 8 10   0.0331662   3.4745050
pair_coeff 3 11   0.0346410   2.9399658
pair_coeff 8 9   0.0184391   2.8865118
pair_coeff 11 13   0.0742967   1.4472650
pair_coeff 9 12   0.0824621   2.5746973
pair_coeff 2 8   0.0214476   1.8927143
pair_coeff 3 11   0.0346410   2.9399658
pair_coeff 9 12   0.0824621   2.5746973
pair_coeff 8 10   0.0331662   3.4745050
pair_coeff 9 12   0.0824621   2.5746973
pair_coeff 8 12   0.0447214   3.0736006
pair_coeff 8 10   0.0331662   3.4745050
pair_coeff 8 10   0.0331662   3.4745050
pair_coeff 25 26   0.0458258   2.9850452
pair_coeff 11 13   0.0742967   1.4472650
pair_coeff 25 26   0.0458258   2.9850452
pair_coeff 3 11   0.0346410   2.9399658
pair_coeff 25 26   0.0458258   2.9850452
pair_coeff 9 12   0.0824621   2.5746973
pair_coeff 26 26   0.0300000   2.4200373
pair_coeff 9 12   0.0824621   2.5746973
pair_coeff 25 26   0.0458258   2.9850452
pair_coeff 3 12   0.0447214   3.0736006
pair_coeff 25 26   0.0458258   2.9850452
pair_coeff 11 12   0.1549193   2.6281512
pair_coeff 25 26   0.0458258   2.9850452
pair_coeff 12 12   0.2000000   2.7617860
pair_coeff 26 26   0.0300000   2.4200373
pair_coeff 8 13   0.0214476   1.8927143
pair_coeff 25 26   0.0458258   2.9850452
pair_coeff 3 5   0.0212132   2.8865118
pair_coeff 25 26   0.0458258   2.9850452
pair_coeff 3 6   0.0100000   3.3854151
pair_coeff 25 26   0.0458258   2.9850452
pair_coeff 3 6   0.0100000   3.3854151
pair_coeff 26 26   0.0300000   2.4200373
pair_coeff 3 13   0.0214476   1.8927143
pair_coeff 26 26   0.0300000   2.4200373
pair_coeff 3 3   0.0100000   3.3854151
pair_coeff 3 10   0.0331662   3.4745050
pair_coeff 3 4   0.0148324   2.8686939
pair_coeff 11 13   0.0742967   1.4472650
pair_coeff 4 11   0.0513809   2.4232445
pair_coeff 3 11   0.0346410   2.9399658
pair_coeff 4 12   0.0663325   2.5568793
pair_coeff 5 12   0.0948683   2.5746973
pair_coeff 7 8   0.0154919   2.8865118
pair_coeff 6 12   0.0447214   3.0736006
pair_coeff 7 8   0.0154919   2.8865118
pair_coeff 6 12   0.0447214   3.0736006
pair_coeff 7 8   0.0154919   2.8865118
pair_coeff 11 12   0.1549193   2.6281512
pair_coeff 7 8   0.0154919   2.8865118
pair_coeff 12 12   0.2000000   2.7617860
pair_coeff 7 8   0.0154919   2.8865118
pair_coeff 3 13   0.0214476   1.8927143
pair_coeff 7 8   0.0154919   2.8865118
pair_coeff 3 7   0.0154919   2.8865118
pair_coeff 8 11   0.0346410   2.9399658
pair_coeff 3 7   0.0154919   2.8865118
pair_coeff 8 12   0.0447214   3.0736006
pair_coeff 3 7   0.0154919   2.8865118
pair_coeff 6 9   0.0184391   2.8865118
pair_coeff 3 7   0.0154919   2.8865118
pair_coeff 6 9   0.0184391   2.8865118
pair_coeff 3 7   0.0154919   2.8865118
pair_coeff 6 9   0.0184391   2.8865118
pair_coeff 3 7   0.0154919   2.8865118
pair_coeff 3 11   0.0346410   2.9399658
pair_coeff 11 12   0.1549193   2.6281512
pair_coeff 6 9   0.0184391   2.8865118
pair_coeff 9 12   0.0824621   2.5746973
pair_coeff 12 12   0.2000000   2.7617860
pair_coeff 3 10   0.0331662   3.4745050
pair_coeff 9 12   0.0824621   2.5746973
pair_coeff 8 13   0.0214476   1.8927143
pair_coeff 6 7   0.0154919   2.8865118
pair_coeff 8 12   0.0447214   3.0736006
pair_coeff 3 9   0.0184391   2.8865118
pair_coeff 6 7   0.0154919   2.8865118
pair_coeff 11 12   0.1549193   2.6281512
pair_coeff 3 9   0.0184391   2.8865118
pair_coeff 6 7   0.0154919   2.8865118
pair_coeff 12 12   0.2000000   2.7617860
pair_coeff 3 15   0.0264575   3.4745050
pair_coeff 6 7   0.0154919   2.8865118
pair_coeff 8 13   0.0214476   1.8927143
pair_coeff 3 13   0.0214476   1.8927143
pair_coeff 6 7   0.0154919   2.8865118
pair_coeff 3 9   0.0184391   2.8865118
pair_coeff 3 3   0.0100000   3.3854151
pair_coeff 6 7   0.0154919   2.8865118
pair_coeff 3 9   0.0184391   2.8865118
pair_coeff 4 8   0.0148324   2.8686939
pair_coeff 8 10   0.0331662   3.4745050
pair_coeff 3 8   0.0100000   3.3854151
pair_coeff 4 11   0.0513809   2.4232445
pair_coeff 11 13   0.0742967   1.4472650
pair_coeff 3 13   0.0214476   1.8927143
pair_coeff 4 12   0.0663325   2.5568793
pair_coeff 3 11   0.0346410   2.9399658
pair_coeff 3 3   0.0100000   3.3854151
pair_coeff 8 11   0.0346410   2.9399658
pair_coeff 9 12   0.0824621   2.5746973
pair_coeff 4 8   0.0148324   2.8686939
pair_coeff 8 16   0.0447214   3.3408702
pair_coeff 9 12   0.0824621   2.5746973
pair_coeff 4 11   0.0513809   2.4232445
pair_coeff 8 11   0.0346410   2.9399658
pair_coeff 12 30   0.1744133   2.9577837
pair_coeff 4 12   0.0663325   2.5568793
pair_coeff 8 12   0.0447214   3.0736006
pair_coeff 11 12   0.1549193   2.6281512
pair_coeff 8 9   0.0184391   2.8865118
pair_coeff 8 13   0.0214476   1.8927143
pair_coeff 12 12   0.2000000   2.7617860
pair_coeff 8 9   0.0184391   2.8865118
pair_coeff 8 13   0.0214476   1.8927143
pair_coeff 8 13   0.0214476   1.8927143
pair_coeff 8 37   0.0447214   3.3408702
pair_coeff 8 10   0.0331662   3.4745050
pair_coeff 3 13   0.0214476   1.8927143
pair_coeff 8 11   0.0346410   2.9399658
pair_coeff 9 11   0.0638749   2.4410625
pair_coeff 3 13   0.0214476   1.8927143
pair_coeff 8 12   0.0447214   3.0736006
pair_coeff 9 11   0.0638749   2.4410625
pair_coeff 3 3   0.0100000   3.3854151
pair_coeff 8 9   0.0184391   2.8865118
pair_coeff 11 13   0.0742967   1.4472650
pair_coeff 4 11   0.0513809   2.4232445
pair_coeff 8 9   0.0184391   2.8865118
pair_coeff 11 13   0.0742967   1.4472650
pair_coeff 4 12   0.0663325   2.5568793
pair_coeff 2 8   0.0214476   1.8927143
pair_coeff 8 10   0.0331662   3.4745050
pair_coeff 8 11   0.0346410   2.9399658
pair_coeff 8 10   0.0331662   3.4745050
pair_coeff 11 13   0.0742967   1.4472650
pair_coeff 8 12   0.0447214   3.0736006
pair_coeff 8 10   0.0331662   3.4745050
pair_coeff 3 11   0.0346410   2.9399658
pair_coeff 8 10   0.0331662   3.4745050
pair_coeff 8 37   0.0447214   3.3408702
pair_coeff 9 12   0.0824621   2.5746973
pair_coeff 11 13   0.0742967   1.4472650
pair_coeff 8 37   0.0447214   3.3408702
pair_coeff 9 12   0.0824621   2.5746973
pair_coeff 3 11   0.0346410   2.9399658
pair_coeff 8 10   0.0331662   3.4745050
pair_coeff 8 12   0.0447214   3.0736006
pair_coeff 9 12   0.0824621   2.5746973
pair_coeff 9 12   0.0824621   2.5746973
pair_coeff 26 26   0.0300000   2.4200373
pair_coeff 8 37   0.0447214   3.3408702
pair_coeff 8 12   0.0447214   3.0736006
pair_coeff 25 26   0.0458258   2.9850452
pair_coeff 8 37   0.0447214   3.3408702
pair_coeff 11 12   0.1549193   2.6281512
pair_coeff 25 26   0.0458258   2.9850452
pair_coeff 11 13   0.0742967   1.4472650
pair_coeff 12 12   0.2000000   2.7617860
pair_coeff 25 26   0.0458258   2.9850452
pair_coeff 8 11   0.0346410   2.9399658
pair_coeff 8 13   0.0214476   1.8927143
pair_coeff 26 30   0.0675500   2.7869094
pair_coeff 11 12   0.1549193   2.6281512
pair_coeff 3 9   0.0184391   2.8865118
pair_coeff 25 26   0.0458258   2.9850452
pair_coeff 12 12   0.2000000   2.7617860
pair_coeff 3 9   0.0184391   2.8865118
pair_coeff 25 26   0.0458258   2.9850452
pair_coeff 8 13   0.0214476   1.8927143
pair_coeff 3 8   0.0100000   3.3854151
pair_coeff 26 30   0.0675500   2.7869094
pair_coeff 3 8   0.0100000   3.3854151
pair_coeff 3 13   0.0214476   1.8927143
pair_coeff 26 26   0.0300000   2.4200373
pair_coeff 11 14   0.0579655   2.4410625
pair_coeff 3 3   0.0100000   3.3854151
pair_coeff 10 17   0.0331662   3.4745050
pair_coeff 12 14   0.0748331   2.5746973
pair_coeff 4 8   0.0148324   2.8686939
pair_coeff 11 13   0.0742967   1.4472650
pair_coeff 11 14   0.0579655   2.4410625
pair_coeff 4 11   0.0513809   2.4232445
pair_coeff 3 11   0.0346410   2.9399658
pair_coeff 12 14   0.0748331   2.5746973
pair_coeff 4 12   0.0663325   2.5568793
pair_coeff 9 12   0.0824621   2.5746973
pair_coeff 8 10   0.0331662   3.4745050
pair_coeff 8 9   0.0184391   2.8865118
pair_coeff 9 12   0.0824621   2.5746973
pair_coeff 11 13   0.0742967   1.4472650
pair_coeff 8 9   0.0184391   2.8865118
pair_coeff 12 15   0.1183216   3.1626904
pair_coeff 3 11   0.0346410   2.9399658
pair_coeff 8 8   0.0100000   3.3854151
pair_coeff 11 12   0.1549193   2.6281512
pair_coeff 9 12   0.0824621   2.5746973
pair_coeff 8 11   0.0346410   2.9399658
pair_coeff 12 12   0.2000000   2.7617860
pair_coeff 9 12   0.0824621   2.5746973
pair_coeff 8 12   0.0447214   3.0736006
pair_coeff 13 17   0.0214476   1.8927143
pair_coeff 3 12   0.0447214   3.0736006
pair_coeff 8 9   0.0184391   2.8865118
pair_coeff 3 18   0.0346410   3.2072354
pair_coeff 11 12   0.1549193   2.6281512
pair_coeff 8 9   0.0184391   2.8865118